836.34 0
0 52 88 7 82 48 19 11 62 10 31 27 0
0 58 73 75 56 23 67 39 4 25 55 54 26 0
0 53 40 21 72 74 22 41 15 43 42 57 2 87 13 0
0 89 6 96 99 93 85 98 59 95 94 0
0 97 92 37 100 91 44 14 38 86 16 61 17 84 5 60 0
0 50 33 81 78 34 35 65 66 71 9 51 1 0
0 69 70 30 20 32 90 63 64 49 36 47 46 8 45 83 18 0
0 28 76 77 3 79 29 24 68 80 12 0
